c CNF file corresponding to a (partial) station packing problem.
p cnf 2370 229
1 2 3 4 5 6 7 8 9 10 11 12 13 14 0
-1 -2 0
-1 -3 0
-1 -4 0
-1 -5 0
-1 -6 0
-1 -7 0
-1 -8 0
-1 -9 0
-1 -10 0
-1 -11 0
-1 -12 0
-1 -13 0
-1 -14 0
-2 -3 0
-2 -4 0
-2 -5 0
-2 -6 0
-2 -7 0
-2 -8 0
-2 -9 0
-2 -10 0
-2 -11 0
-2 -12 0
-2 -13 0
-2 -14 0
-3 -4 0
-3 -5 0
-3 -6 0
-3 -7 0
-3 -8 0
-3 -9 0
-3 -10 0
-3 -11 0
-3 -12 0
-3 -13 0
-3 -14 0
-4 -5 0
-4 -6 0
-4 -7 0
-4 -8 0
-4 -9 0
-4 -10 0
-4 -11 0
-4 -12 0
-4 -13 0
-4 -14 0
-5 -6 0
-5 -7 0
-5 -8 0
-5 -9 0
-5 -10 0
-5 -11 0
-5 -12 0
-5 -13 0
-5 -14 0
-6 -7 0
-6 -8 0
-6 -9 0
-6 -10 0
-6 -11 0
-6 -12 0
-6 -13 0
-6 -14 0
-7 -8 0
-7 -9 0
-7 -10 0
-7 -11 0
-7 -12 0
-7 -13 0
-7 -14 0
-8 -9 0
-8 -10 0
-8 -11 0
-8 -12 0
-8 -13 0
-8 -14 0
-9 -10 0
-9 -11 0
-9 -12 0
-9 -13 0
-9 -14 0
-10 -11 0
-10 -12 0
-10 -13 0
-10 -14 0
-11 -12 0
-11 -13 0
-11 -14 0
-12 -13 0
-12 -14 0
-13 -14 0
2354 2355 2356 2357 2358 2359 2360 2361 2362 2363 2364 2365 2366 2367 2368 2369 2370 0
-2354 -2355 0
-2354 -2356 0
-2354 -2357 0
-2354 -2358 0
-2354 -2359 0
-2354 -2360 0
-2354 -2361 0
-2354 -2362 0
-2354 -2363 0
-2354 -2364 0
-2354 -2365 0
-2354 -2366 0
-2354 -2367 0
-2354 -2368 0
-2354 -2369 0
-2354 -2370 0
-2355 -2356 0
-2355 -2357 0
-2355 -2358 0
-2355 -2359 0
-2355 -2360 0
-2355 -2361 0
-2355 -2362 0
-2355 -2363 0
-2355 -2364 0
-2355 -2365 0
-2355 -2366 0
-2355 -2367 0
-2355 -2368 0
-2355 -2369 0
-2355 -2370 0
-2356 -2357 0
-2356 -2358 0
-2356 -2359 0
-2356 -2360 0
-2356 -2361 0
-2356 -2362 0
-2356 -2363 0
-2356 -2364 0
-2356 -2365 0
-2356 -2366 0
-2356 -2367 0
-2356 -2368 0
-2356 -2369 0
-2356 -2370 0
-2357 -2358 0
-2357 -2359 0
-2357 -2360 0
-2357 -2361 0
-2357 -2362 0
-2357 -2363 0
-2357 -2364 0
-2357 -2365 0
-2357 -2366 0
-2357 -2367 0
-2357 -2368 0
-2357 -2369 0
-2357 -2370 0
-2358 -2359 0
-2358 -2360 0
-2358 -2361 0
-2358 -2362 0
-2358 -2363 0
-2358 -2364 0
-2358 -2365 0
-2358 -2366 0
-2358 -2367 0
-2358 -2368 0
-2358 -2369 0
-2358 -2370 0
-2359 -2360 0
-2359 -2361 0
-2359 -2362 0
-2359 -2363 0
-2359 -2364 0
-2359 -2365 0
-2359 -2366 0
-2359 -2367 0
-2359 -2368 0
-2359 -2369 0
-2359 -2370 0
-2360 -2361 0
-2360 -2362 0
-2360 -2363 0
-2360 -2364 0
-2360 -2365 0
-2360 -2366 0
-2360 -2367 0
-2360 -2368 0
-2360 -2369 0
-2360 -2370 0
-2361 -2362 0
-2361 -2363 0
-2361 -2364 0
-2361 -2365 0
-2361 -2366 0
-2361 -2367 0
-2361 -2368 0
-2361 -2369 0
-2361 -2370 0
-2362 -2363 0
-2362 -2364 0
-2362 -2365 0
-2362 -2366 0
-2362 -2367 0
-2362 -2368 0
-2362 -2369 0
-2362 -2370 0
-2363 -2364 0
-2363 -2365 0
-2363 -2366 0
-2363 -2367 0
-2363 -2368 0
-2363 -2369 0
-2363 -2370 0
-2364 -2365 0
-2364 -2366 0
-2364 -2367 0
-2364 -2368 0
-2364 -2369 0
-2364 -2370 0
-2365 -2366 0
-2365 -2367 0
-2365 -2368 0
-2365 -2369 0
-2365 -2370 0
-2366 -2367 0
-2366 -2368 0
-2366 -2369 0
-2366 -2370 0
-2367 -2368 0
-2367 -2369 0
-2367 -2370 0
-2368 -2369 0
-2368 -2370 0
-2369 -2370 0
